experiments/eusolverbv/7/TrainGenes/110111001110111001010101110010010010000000000/136_.sl

(set-logic BV)

(define-fun shr1 ((x (BitVec 64))) (BitVec 64) (bvlshr x #x0000000000000001))
(define-fun shr4 ((x (BitVec 64))) (BitVec 64) (bvlshr x #x0000000000000004))
(define-fun shr16 ((x (BitVec 64))) (BitVec 64) (bvlshr x #x0000000000000010))
(define-fun shl1 ((x (BitVec 64))) (BitVec 64) (bvshl x #x0000000000000001))
(define-fun if0 ((x (BitVec 64)) (y (BitVec 64)) (z (BitVec 64))) (BitVec 64) (ite (= x #x0000000000000001) y z))
(define-fun func23  ((A (BitVec 64)) (B (BitVec 64)) (C (BitVec 64)) (D (BitVec 64)) ) (BitVec 64) (bvand (bvlshr (bvlshr C  D ) B ) A ))
(define-fun func24  ((A (BitVec 64)) (B (BitVec 64)) (C (BitVec 64)) ) (BitVec 64) (bvand (bvlshr B  C ) A ))
(define-fun func25  ((A (BitVec 64)) (B (BitVec 64)) ) (BitVec 64) (bvand (bvlshr B  #x0000000000000001 ) A ))
(define-fun func26  ((A (BitVec 64)) (B (BitVec 64)) ) (BitVec 64) (bvand (bvlshr B  #x0000000000000010 ) A ))
(define-fun func27  ((A (BitVec 64)) (B (BitVec 64)) ) (BitVec 64) (bvand (bvlshr B  #x0000000000000004 ) A ))
(define-fun func28  ((A (BitVec 64)) (B (BitVec 64)) ) (BitVec 64) (bvand (bvlshr A  B ) #x0000000000000001 ))
(define-fun func29  ((A (BitVec 64)) ) (BitVec 64) (bvand A  #x0000000000000001 ))
(define-fun func30  ((A (BitVec 64)) (B (BitVec 64)) (C (BitVec 64)) (D (BitVec 64)) ) (BitVec 64) (bvlshr (bvlshr (bvlshr C  D ) B ) A ))
(define-fun func31  ((A (BitVec 64)) (B (BitVec 64)) (C (BitVec 64)) ) (BitVec 64) (bvlshr (bvlshr (bvlshr C  #x0000000000000010 ) B ) A ))
(define-fun func32  ((A (BitVec 64)) (B (BitVec 64)) (C (BitVec 64)) ) (BitVec 64) (bvlshr (bvlshr B  C ) A ))
(define-fun func33  ((A (BitVec 64)) (B (BitVec 64)) ) (BitVec 64) (bvlshr (bvlshr B  #x0000000000000010 ) A ))
(define-fun func34  ((A (BitVec 64)) (B (BitVec 64)) ) (BitVec 64) (bvlshr (bvlshr B  #x0000000000000004 ) A ))
(define-fun func35  ((A (BitVec 64)) (B (BitVec 64)) ) (BitVec 64) (bvlshr (bvlshr B  #x0000000000000001 ) A ))
(define-fun func36  ((A (BitVec 64)) (B (BitVec 64)) ) (BitVec 64) (bvlshr (bvlshr A  B ) #x0000000000000001 ))
(define-fun func37  ((A (BitVec 64)) (B (BitVec 64)) ) (BitVec 64) (bvlshr (bvlshr A  B ) #x0000000000000004 ))
(define-fun func38  ((A (BitVec 64)) (B (BitVec 64)) ) (BitVec 64) (bvlshr A  B ))
(define-fun func39  ((A (BitVec 64)) (B (BitVec 64)) (C (BitVec 64)) ) (BitVec 64) (bvlshr (bvshl B  C ) A ))
(define-fun func40  ((A (BitVec 64)) (B (BitVec 64)) ) (BitVec 64) (bvlshr (bvshl B  #x0000000000000001 ) A ))
(define-fun func41  ((A (BitVec 64)) (B (BitVec 64)) ) (BitVec 64) (bvlshr (bvshl A  B ) #x0000000000000004 ))
(define-fun func42  ((A (BitVec 64)) (B (BitVec 64)) (C (BitVec 64)) ) (BitVec 64) (bvlshr (bvadd B  C ) A ))
(define-fun func43  ((A (BitVec 64)) (B (BitVec 64)) ) (BitVec 64) (bvlshr (bvnot B ) A ))
(define-fun func44  ((A (BitVec 64)) ) (BitVec 64) (bvlshr (bvnot A ) #x0000000000000010 ))
(define-fun func45  ((A (BitVec 64)) (B (BitVec 64)) (C (BitVec 64)) ) (BitVec 64) (bvor (bvlshr B  C ) A ))
(define-fun func46  ((A (BitVec 64)) ) (BitVec 64) (bvor A  #x0000000000000001 ))
(define-fun func47  ((A (BitVec 64)) (B (BitVec 64)) (C (BitVec 64)) ) (BitVec 64) (bvshl (bvlshr B  C ) A ))
(define-fun func48  ((A (BitVec 64)) (B (BitVec 64)) ) (BitVec 64) (bvshl (bvlshr B  #x0000000000000001 ) A ))
(define-fun func49  ((A (BitVec 64)) (B (BitVec 64)) ) (BitVec 64) (bvshl (bvlshr A  B ) #x0000000000000001 ))
(define-fun func51  ((A (BitVec 64)) (B (BitVec 64)) (C (BitVec 64)) ) (BitVec 64) (bvshl (bvshl B  C ) A ))
(define-fun func52  ((A (BitVec 64)) (B (BitVec 64)) ) (BitVec 64) (bvshl (bvshl B  #x0000000000000001 ) A ))
(define-fun func53  ((A (BitVec 64)) (B (BitVec 64)) ) (BitVec 64) (bvshl (bvshl A  B ) #x0000000000000001 ))
(define-fun func54  ((A (BitVec 64)) (B (BitVec 64)) (C (BitVec 64)) ) (BitVec 64) (bvadd (bvlshr B  C ) A ))
(define-fun func55  ((A (BitVec 64)) ) (BitVec 64) (bvadd A  #x0000000000000001 ))
(define-fun func56  ((A (BitVec 64)) (B (BitVec 64)) (C (BitVec 64)) ) (BitVec 64) (bvadd (bvshl B  C ) A ))
(define-fun func57  ((A (BitVec 64)) (B (BitVec 64)) ) (BitVec 64) (bvadd (bvshl B  #x0000000000000001 ) A ))
(define-fun func58  ((A (BitVec 64)) ) (BitVec 64) (bvnot (bvshl A  #x0000000000000001 )))
(synth-fun f ( (x (BitVec 64))) (BitVec 64)
(
(Start (BitVec 64) (
   #x0000000000000000
   #x0000000000000001
   x
   (func23 Start Start Start Start)
   (func24 Start Start Start)
   (func26 Start Start)
   (func27 Start Start)
   (func28 Start Start)
   (func31 Start Start Start)
   (func32 Start Start Start)
   (func33 Start Start)
   (func35 Start Start)
   (func36 Start Start)
   (func37 Start Start)
   (func40 Start Start)
   (func42 Start Start Start)
   (func44 Start)
   (func46 Start)
   (func47 Start Start Start)
   (func48 Start Start)
   (func52 Start Start)
   (func55 Start)
   (func58 Start)
   (bvnot Start)
   (shl1 Start)
   (shr1 Start)
   (shr4 Start)
   (shr16 Start)
   (bvand Start Start)
   (bvor Start Start)
   (bvxor Start Start)
   (bvadd Start Start)
   (if0 Start Start Start)
))
))
(constraint (= (f #x0ab4871abc0c9048) #x0ab4871abc0c9049))
(constraint (= (f #x2577a3eb2378f65c) #x2577a3eb2378f65d))
(constraint (= (f #x0636347b66d2f3bd) #x0636347b66d2f3bd))
(constraint (= (f #xea3d067a6f0d2358) #xea3d067a6f0d2359))
(constraint (= (f #x257afd1ded9e8b3d) #x257afd1ded9e8b3d))
(constraint (= (f #x0000000000001c88) #x0000000000001c89))
(constraint (= (f #x0000000000001cc4) #x0000000000001cc5))
(constraint (= (f #x0000000000001edc) #x0000000000001edd))
(constraint (= (f #x0000000000001c90) #x0000000000001c91))
(constraint (= (f #x0000000000001205) #x0000000000001205))
(constraint (= (f #x0000000000000000) #x0000000000000001))
(constraint (= (f #x0000000000000001) #x0000000000000001))
(constraint (= (f #x939be34534e9d6e2) #x2737c68a69d3adc4))
(constraint (= (f #xe3162e50ffcbb29f) #xc62c5ca1ff97653e))
(constraint (= (f #x070d545b12656427) #x0e1aa8b624cac84e))
(constraint (= (f #xe5a97e7cc66ac51f) #xcb52fcf98cd58a3e))
(constraint (= (f #xa719b4c6a36f0923) #x4e33698d46de1246))
(constraint (= (f #x8000000000000010) #x0000000000000001))
(constraint (= (f #x800000000000001c) #x0000000000000001))
(constraint (= (f #x0000000000000010) #x0000000000000001))
(constraint (= (f #x8000000000000014) #x0000000000000001))
(constraint (= (f #xc709c5fc56f83f91) #xc709c5fc56f83f91))
(constraint (= (f #x93ab71611b84e3b0) #x93ab71611b84e3b1))
(constraint (= (f #x7b8e92dadbb3f5b8) #x7b8e92dadbb3f5b9))
(constraint (= (f #x86c18f97a3210b15) #x86c18f97a3210b15))
(constraint (= (f #xf0f4fa0589221be0) #xf0f4fa0589221be1))
(constraint (= (f #x0000000000001a36) #x0000000000001a37))
(constraint (= (f #x00000000000012b6) #x00000000000012b7))
(constraint (= (f #x0000000000001072) #x0000000000001073))
(constraint (= (f #x000000000000125b) #x000000000000125b))
(constraint (= (f #x0000000000001232) #x0000000000001233))
(constraint (= (f #x00000000000012a5) #x000000000000254a))
(constraint (= (f #x0000000000001af0) #x00000000000035e0))
(constraint (= (f #x0000000000001224) #x0000000000002448))
(constraint (= (f #x0000000000001b2c) #x0000000000003658))
(constraint (= (f #x00000000000019f4) #x00000000000033e8))
(constraint (= (f #x8000000000000013) #x0000000000000026))
(constraint (= (f #x800000000000001b) #x0000000000000036))
(constraint (= (f #x0000000000000013) #x0000000000000026))
(constraint (= (f #x000000000000001f) #x000000000000003e))
(constraint (= (f #x34dc843ca2cc5052) #x69b908794598a0a4))
(constraint (= (f #x78fc0453a151828a) #xf1f808a742a30514))
(constraint (= (f #x3358c864f9361fb7) #x66b190c9f26c3f6e))
(constraint (= (f #x0a79c112b2f0e452) #x14f3822565e1c8a4))
(constraint (= (f #x832936995dc7ac16) #x06526d32bb8f582c))
(constraint (= (f #x0000000000000011) #x0000000000000001))
(constraint (= (f #x8000000000000011) #x0000000000000001))
(constraint (= (f #x8000000000000019) #x0000000000000001))
(constraint (= (f #x800000000000001d) #x0000000000000001))
(constraint (= (f #x0000000000001e02) #x0000000000003c04))
(constraint (= (f #x0000000000001392) #x0000000000002724))
(constraint (= (f #x00000000000011bf) #x000000000000237e))
(constraint (= (f #x00000000000015ff) #x0000000000002bfe))
(constraint (= (f #x00000000000017da) #x0000000000002fb4))
(constraint (= (f #x8000000000000012) #x0000000000000024))
(constraint (= (f #x0000000000000016) #x000000000000002c))
(constraint (= (f #x000000000000001e) #x000000000000003c))
(constraint (= (f #x0000000000000012) #x0000000000000024))
(check-synth)
