experiments/eusolverbv/7/TrainGenes/110111001110111001010101110010010010000000000/136_.out
(define-fun f ((x (BitVec 64))) (BitVec 64)
     (if0 (func28 x #x0000000000000001) (if0 (func46 (shr16 x)) (if0 (func27 #x0000000000000001 (func55 x)) (if0 (func27 #x0000000000000001 (shr1 x)) (func46 x) (if0 (func28 x #x0000000000000000) (if0 (func27 (func44 #x0000000000000000) x) (shl1 x) (func46 x)) (shl1 x))) (shl1 x)) (shl1 x)) (if0 (func27 (func44 #x0000000000000000) x) #x0000000000000001 (if0 (func46 (shr16 x)) (if0 (func27 #x0000000000000001 (shr1 x)) (shl1 x) (func46 x)) (func46 x)))))
9.047073386609554
